NAME : N101P10.754.tour
COMMENT : Cost = 0_754
COMMENT : Found by LKH [Keld Helsgaun] Sun Sep 17 15:52:35 2017
TYPE : TOUR
DIMENSION : 101
TOUR_SECTION
1
58
39
101
14
2
49
32
66
16
17
67
76
34
69
65
53
28
84
62
47
64
25
100
27
57
82
87
7
68
90
11
88
85
70
22
59
15
12
89
83
95
33
8
38
10
29
74
60
86
35
80
18
92
30
73
50
3
61
21
45
43
93
56
96
79
91
9
5
23
94
40
46
51
19
63
4
81
26
98
52
54
99
13
31
78
48
55
77
6
24
75
20
37
72
71
41
97
42
36
44
-1
EOF
